generated from convert_struct_xyz_to_POSCAR
1.0
0.00000000      12.57455181      12.57455181
12.57455181       0.00000000      12.57455181
12.57455181      12.57455181       0.00000000
Li        O        Ti        
28   216   188   
direct
0.00000000       0.00000000       0.83333400   Li
0.00000000       0.16666700       0.33333400   Li
0.00000000       0.33333300       0.83333300   Li
0.00000000       0.50000100       0.83333500   Li
0.00000000       0.66666800       0.33333600   Li
0.16666700       0.00000000       0.66666700   Li
0.16666700       0.33333400       0.16666700   Li
0.16666600       0.66666800       0.66666800   Li
0.16666700       0.83333700       0.16666700   Li
0.33333400       0.00000000       0.00000000   Li
0.33333400       0.16666600       0.50000000   Li
0.33333300       0.33333300       0.50000100   Li
0.33333400       0.50000000       0.00000000   Li
0.33333600       0.66666800       0.49999800   Li
0.50000000       0.00000000       0.33333400   Li
0.49999900       0.16666700       0.83333700   Li
0.50000200       0.50000200       0.33333200   Li
0.50000200       0.66666400       0.83333400   Li
0.50000200       0.83333400       0.33333200   Li
0.66666700       0.16666700       0.16666700   Li
0.66666800       0.33333600       0.66666800   Li
0.66666700       0.49999900       0.16666700   Li
0.66666800       0.83333000       0.66666800   Li
0.83333500       0.00000000       0.50000100   Li
0.83333500       0.16666800       0.00000000   Li
0.83333400       0.50000200       0.50000200   Li
0.83333300       0.66666500       0.00000000   Li
0.83333400       0.83333400       0.00000000   Li
0.08333300       0.08333300       0.08333300   O
0.08333300       0.08333300       0.25000000   O
0.08333300       0.08333300       0.41666700   O
0.08333300       0.08333300       0.58333300   O
0.08333300       0.08333300       0.75000000   O
0.08333300       0.08333300       0.91667000   O
0.08333300       0.25000000       0.08333300   O
0.08333300       0.25000000       0.25000000   O
0.08333400       0.25000000       0.41666700   O
0.08333300       0.25000100       0.58333300   O
0.08333200       0.25000200       0.75000200   O
0.08333600       0.24999800       0.91666800   O
0.08333300       0.41666700       0.08333300   O
0.08333400       0.41666700       0.25000000   O
0.08333300       0.41666700       0.41666700   O
0.08333100       0.41666900       0.58333500   O
0.08333400       0.41666600       0.75000000   O
0.08333400       0.41666600       0.91667000   O
0.08333300       0.58333300       0.08333300   O
0.08333300       0.58333300       0.25000100   O
0.08333100       0.58333500       0.41666900   O
0.08333300       0.58333300       0.58333300   O
0.08333200       0.58333400       0.75000200   O
0.08333600       0.58333000       0.91666800   O
0.08333300       0.75000000       0.08333300   O
0.08333200       0.75000200       0.25000200   O
0.08333400       0.75000000       0.41666600   O
0.08333200       0.75000200       0.58333400   O
0.08333500       0.74999900       0.74999900   O
0.08333500       0.74999900       0.91666900   O
0.08333300       0.91667000       0.08333300   O
0.08333600       0.91666800       0.24999800   O
0.08333400       0.91667000       0.41666600   O
0.08333600       0.91666800       0.58333000   O
0.08333500       0.91666900       0.74999900   O
0.08333900       0.91666500       0.91666500   O
0.25000000       0.08333300       0.08333300   O
0.25000000       0.08333300       0.25000000   O
0.25000000       0.08333400       0.41666700   O
0.25000100       0.08333300       0.58333300   O
0.25000200       0.08333200       0.75000200   O
0.24999800       0.08333600       0.91666800   O
0.25000000       0.25000000       0.08333300   O
0.25000000       0.25000000       0.25000000   O
0.25000000       0.25000000       0.41666600   O
0.25000000       0.25000000       0.58333400   O
0.25000000       0.25000000       0.75000400   O
0.25000000       0.25000000       0.91666600   O
0.25000000       0.41666700       0.08333400   O
0.25000000       0.41666600       0.25000000   O
0.24999900       0.41666700       0.41666700   O
0.24999800       0.41666800       0.58333600   O
0.25000200       0.41666400       0.75000200   O
0.24999800       0.41666800       0.91666800   O
0.25000100       0.58333300       0.08333300   O
0.25000000       0.58333400       0.25000000   O
0.24999800       0.58333600       0.41666800   O
0.25000100       0.58333300       0.58333300   O
0.25000100       0.58333300       0.75000300   O
0.25000100       0.58333300       0.91666500   O
0.25000200       0.75000200       0.08333200   O
0.25000000       0.75000400       0.25000000   O
0.25000200       0.75000200       0.41666400   O
0.25000100       0.75000300       0.58333300   O
0.25000500       0.74999900       0.74999900   O
0.25000100       0.75000300       0.91666500   O
0.24999800       0.91666800       0.08333600   O
0.25000000       0.91666600       0.25000000   O
0.24999800       0.91666800       0.41666800   O
0.25000100       0.91666500       0.58333300   O
0.25000100       0.91666500       0.75000300   O
0.25000100       0.91666500       0.91666500   O
0.41666700       0.08333300       0.08333300   O
0.41666700       0.08333400       0.25000000   O
0.41666700       0.08333300       0.41666700   O
0.41666900       0.08333100       0.58333500   O
0.41666600       0.08333400       0.75000000   O
0.41666600       0.08333400       0.91667000   O
0.41666700       0.25000000       0.08333400   O
0.41666600       0.25000000       0.25000000   O
0.41666700       0.24999900       0.41666700   O
0.41666800       0.24999800       0.58333600   O
0.41666400       0.25000200       0.75000200   O
0.41666800       0.24999800       0.91666800   O
0.41666700       0.41666700       0.08333300   O
0.41666700       0.41666700       0.24999900   O
0.41666700       0.41666700       0.41666700   O
0.41666700       0.41666700       0.58333700   O
0.41666700       0.41666700       0.74999900   O
0.41666700       0.41666700       0.91666900   O
0.41666900       0.58333500       0.08333100   O
0.41666800       0.58333600       0.24999800   O
0.41666700       0.58333700       0.41666700   O
0.41667100       0.58333300       0.58333300   O
0.41666700       0.58333700       0.74999900   O
0.41667100       0.58333300       0.91666500   O
0.41666600       0.75000000       0.08333400   O
0.41666400       0.75000200       0.25000200   O
0.41666700       0.74999900       0.41666700   O
0.41666700       0.74999900       0.58333700   O
0.41666700       0.74999900       0.74999900   O
0.41666700       0.74999900       0.91666900   O
0.41666600       0.91667000       0.08333400   O
0.41666800       0.91666800       0.24999800   O
0.41666700       0.91666900       0.41666700   O
0.41667100       0.91666500       0.58333300   O
0.41666700       0.91666900       0.74999900   O
0.41667100       0.91666500       0.91666500   O
0.58333300       0.08333300       0.08333300   O
0.58333300       0.08333300       0.25000100   O
0.58333500       0.08333100       0.41666900   O
0.58333300       0.08333300       0.58333300   O
0.58333400       0.08333200       0.75000200   O
0.58333000       0.08333600       0.91666800   O
0.58333300       0.25000100       0.08333300   O
0.58333400       0.25000000       0.25000000   O
0.58333600       0.24999800       0.41666800   O
0.58333300       0.25000100       0.58333300   O
0.58333300       0.25000100       0.75000300   O
0.58333300       0.25000100       0.91666500   O
0.58333500       0.41666900       0.08333100   O
0.58333600       0.41666800       0.24999800   O
0.58333700       0.41666700       0.41666700   O
0.58333300       0.41667100       0.58333300   O
0.58333700       0.41666700       0.74999900   O
0.58333300       0.41667100       0.91666500   O
0.58333300       0.58333300       0.08333300   O
0.58333300       0.58333300       0.25000100   O
0.58333300       0.58333300       0.41667100   O
0.58333300       0.58333300       0.58333300   O
0.58333300       0.58333300       0.75000300   O
0.58333300       0.58333300       0.91666500   O
0.58333400       0.75000200       0.08333200   O
0.58333300       0.75000300       0.25000100   O
0.58333700       0.74999900       0.41666700   O
0.58333300       0.75000300       0.58333300   O
0.58333700       0.74999900       0.74999900   O
0.58333300       0.75000300       0.91666500   O
0.58333000       0.91666800       0.08333600   O
0.58333300       0.91666500       0.25000100   O
0.58333300       0.91666500       0.41667100   O
0.58333300       0.91666500       0.58333300   O
0.58333300       0.91666500       0.75000300   O
0.58333300       0.91666500       0.91666500   O
0.75000000       0.08333300       0.08333300   O
0.75000200       0.08333200       0.25000200   O
0.75000000       0.08333400       0.41666600   O
0.75000200       0.08333200       0.58333400   O
0.74999900       0.08333500       0.74999900   O
0.74999900       0.08333500       0.91666900   O
0.75000200       0.25000200       0.08333200   O
0.75000400       0.25000000       0.25000000   O
0.75000200       0.25000200       0.41666400   O
0.75000300       0.25000100       0.58333300   O
0.74999900       0.25000500       0.74999900   O
0.75000300       0.25000100       0.91666500   O
0.75000000       0.41666600       0.08333400   O
0.75000200       0.41666400       0.25000200   O
0.74999900       0.41666700       0.41666700   O
0.74999900       0.41666700       0.58333700   O
0.74999900       0.41666700       0.74999900   O
0.74999900       0.41666700       0.91666900   O
0.75000200       0.58333400       0.08333200   O
0.75000300       0.58333300       0.25000100   O
0.74999900       0.58333700       0.41666700   O
0.75000300       0.58333300       0.58333300   O
0.74999900       0.58333700       0.74999900   O
0.75000300       0.58333300       0.91666500   O
0.74999900       0.74999900       0.08333500   O
0.74999900       0.74999900       0.25000500   O
0.74999900       0.74999900       0.41666700   O
0.74999900       0.74999900       0.58333700   O
0.74999900       0.74999900       0.74999900   O
0.74999900       0.74999900       0.91666900   O
0.74999900       0.91666900       0.08333500   O
0.75000300       0.91666500       0.25000100   O
0.74999900       0.91666900       0.41666700   O
0.75000300       0.91666500       0.58333300   O
0.74999900       0.91666900       0.74999900   O
0.75000300       0.91666500       0.91666500   O
0.91667000       0.08333300       0.08333300   O
0.91666800       0.08333600       0.24999800   O
0.91667000       0.08333400       0.41666600   O
0.91666800       0.08333600       0.58333000   O
0.91666900       0.08333500       0.74999900   O
0.91666500       0.08333900       0.91666500   O
0.91666800       0.24999800       0.08333600   O
0.91666600       0.25000000       0.25000000   O
0.91666800       0.24999800       0.41666800   O
0.91666500       0.25000100       0.58333300   O
0.91666500       0.25000100       0.75000300   O
0.91666500       0.25000100       0.91666500   O
0.91667000       0.41666600       0.08333400   O
0.91666800       0.41666800       0.24999800   O
0.91666900       0.41666700       0.41666700   O
0.91666500       0.41667100       0.58333300   O
0.91666900       0.41666700       0.74999900   O
0.91666500       0.41667100       0.91666500   O
0.91666800       0.58333000       0.08333600   O
0.91666500       0.58333300       0.25000100   O
0.91666500       0.58333300       0.41667100   O
0.91666500       0.58333300       0.58333300   O
0.91666500       0.58333300       0.75000300   O
0.91666500       0.58333300       0.91666500   O
0.91666900       0.74999900       0.08333500   O
0.91666500       0.75000300       0.25000100   O
0.91666900       0.74999900       0.41666700   O
0.91666500       0.75000300       0.58333300   O
0.91666900       0.74999900       0.74999900   O
0.91666500       0.75000300       0.91666500   O
0.91666500       0.91666500       0.08333900   O
0.91666500       0.91666500       0.25000100   O
0.91666500       0.91666500       0.41667100   O
0.91666500       0.91666500       0.58333300   O
0.91666500       0.91666500       0.75000300   O
0.91666500       0.91666500       0.91666500   O
0.00000000       0.00000000       0.00000000   Ti
0.00000000       0.00000000       0.16666700   Ti
0.00000000       0.00000000       0.33333400   Ti
0.00000000       0.00000000       0.50000000   Ti
0.00000000       0.00000000       0.66666600   Ti
0.00000000       0.16666700       0.00000000   Ti
0.00000000       0.16666700       0.16666700   Ti
0.00000000       0.16666600       0.50000000   Ti
0.00000000       0.16666700       0.66666700   Ti
0.00000000       0.16666800       0.83333500   Ti
0.00000000       0.33333400       0.00000000   Ti
0.00000000       0.33333400       0.16666700   Ti
0.00000000       0.33333300       0.33333300   Ti
0.00000000       0.33333400       0.50000000   Ti
0.00000000       0.33333600       0.66666800   Ti
0.00000000       0.50000000       0.00000000   Ti
0.00000000       0.50000000       0.16666600   Ti
0.00000000       0.50000000       0.33333400   Ti
0.00000000       0.50000200       0.50000200   Ti
0.00000000       0.50000000       0.66666600   Ti
0.00000000       0.66666600       0.00000000   Ti
0.00000000       0.66666700       0.16666700   Ti
0.00000000       0.66666600       0.50000000   Ti
0.00000000       0.66666800       0.66666800   Ti
0.00000000       0.66666500       0.83333300   Ti
0.00000000       0.83333400       0.00000000   Ti
0.00000000       0.83333500       0.16666800   Ti
0.00000000       0.83333300       0.33333300   Ti
0.00000000       0.83333500       0.50000100   Ti
0.00000000       0.83333300       0.66666500   Ti
0.00000000       0.83333400       0.83333400   Ti
0.16666700       0.00000000       0.00000000   Ti
0.16666700       0.00000000       0.16666700   Ti
0.16666700       0.00000000       0.33333400   Ti
0.16666600       0.00000000       0.50000000   Ti
0.16666800       0.00000000       0.83333500   Ti
0.16666700       0.16666700       0.00000000   Ti
0.16666700       0.16666700       0.16666700   Ti
0.16666700       0.16666700       0.33333400   Ti
0.16666700       0.16666700       0.50000000   Ti
0.16666700       0.16666700       0.66666700   Ti
0.16666700       0.16666700       0.83333700   Ti
0.16666700       0.33333400       0.00000000   Ti
0.16666700       0.33333300       0.33333300   Ti
0.16666600       0.33333400       0.50000000   Ti
0.16666500       0.33333500       0.66666900   Ti
0.16666900       0.33333100       0.83333500   Ti
0.16666600       0.50000000       0.00000000   Ti
0.16666700       0.50000000       0.16666700   Ti
0.16666600       0.50000000       0.33333400   Ti
0.16666400       0.50000200       0.50000200   Ti
0.16666700       0.49999900       0.66666700   Ti
0.16666700       0.49999900       0.83333700   Ti
0.16666700       0.66666700       0.00000000   Ti
0.16666700       0.66666700       0.16666700   Ti
0.16666500       0.66666900       0.33333500   Ti
0.16666700       0.66666700       0.49999900   Ti
0.16667000       0.66666400       0.83333400   Ti
0.16666800       0.83333500       0.00000000   Ti
0.16666900       0.83333500       0.33333100   Ti
0.16666700       0.83333700       0.49999900   Ti
0.16667000       0.83333400       0.66666400   Ti
0.16667000       0.83333400       0.83333400   Ti
0.33333400       0.00000000       0.16666700   Ti
0.33333300       0.00000000       0.33333300   Ti
0.33333400       0.00000000       0.50000000   Ti
0.33333600       0.00000000       0.66666800   Ti
0.33333300       0.00000000       0.83333300   Ti
0.33333400       0.16666700       0.00000000   Ti
0.33333400       0.16666700       0.16666700   Ti
0.33333300       0.16666700       0.33333300   Ti
0.33333500       0.16666500       0.66666900   Ti
0.33333100       0.16666900       0.83333500   Ti
0.33333300       0.33333300       0.00000000   Ti
0.33333300       0.33333300       0.16666700   Ti
0.33333300       0.33333300       0.33333300   Ti
0.33333300       0.33333300       0.66667100   Ti
0.33333300       0.33333300       0.83333300   Ti
0.33333400       0.50000000       0.16666600   Ti
0.33333300       0.50000100       0.33333300   Ti
0.33333200       0.50000200       0.50000200   Ti
0.33333600       0.49999800       0.66666800   Ti
0.33333200       0.50000200       0.83333400   Ti
0.33333600       0.66666800       0.00000000   Ti
0.33333500       0.66666900       0.16666500   Ti
0.33333300       0.66667100       0.33333300   Ti
0.33333600       0.66666800       0.66666800   Ti
0.33333600       0.66666800       0.83333000   Ti
0.33333300       0.83333300       0.00000000   Ti
0.33333100       0.83333500       0.16666900   Ti
0.33333300       0.83333300       0.33333300   Ti
0.33333200       0.83333400       0.50000200   Ti
0.33333600       0.83333000       0.66666800   Ti
0.33333200       0.83333400       0.83333400   Ti
0.50000000       0.00000000       0.00000000   Ti
0.50000000       0.00000000       0.16666600   Ti
0.50000200       0.00000000       0.50000200   Ti
0.50000000       0.00000000       0.66666600   Ti
0.50000100       0.00000000       0.83333500   Ti
0.50000000       0.16666600       0.00000000   Ti
0.50000000       0.16666700       0.16666700   Ti
0.50000000       0.16666600       0.33333400   Ti
0.50000200       0.16666400       0.50000200   Ti
0.49999900       0.16666700       0.66666700   Ti
0.50000000       0.33333400       0.00000000   Ti
0.50000000       0.33333400       0.16666600   Ti
0.50000100       0.33333300       0.33333300   Ti
0.50000200       0.33333200       0.50000200   Ti
0.49999800       0.33333600       0.66666800   Ti
0.50000200       0.33333200       0.83333400   Ti
0.50000200       0.50000200       0.00000000   Ti
0.50000200       0.50000200       0.16666400   Ti
0.50000200       0.50000200       0.50000200   Ti
0.50000200       0.50000200       0.66666400   Ti
0.50000200       0.50000200       0.83333400   Ti
0.50000000       0.66666600       0.00000000   Ti
0.49999900       0.66666700       0.16666700   Ti
0.49999800       0.66666800       0.33333600   Ti
0.50000200       0.66666400       0.50000200   Ti
0.49999800       0.66666800       0.66666800   Ti
0.50000100       0.83333500       0.00000000   Ti
0.49999900       0.83333700       0.16666700   Ti
0.50000200       0.83333400       0.50000200   Ti
0.50000200       0.83333400       0.66666400   Ti
0.50000200       0.83333400       0.83333400   Ti
0.66666600       0.00000000       0.00000000   Ti
0.66666700       0.00000000       0.16666700   Ti
0.66666800       0.00000000       0.33333600   Ti
0.66666600       0.00000000       0.50000000   Ti
0.66666800       0.00000000       0.66666800   Ti
0.66666500       0.00000000       0.83333300   Ti
0.66666700       0.16666700       0.00000000   Ti
0.66666900       0.16666500       0.33333500   Ti
0.66666700       0.16666700       0.49999900   Ti
0.66666800       0.16666600       0.66666800   Ti
0.66666400       0.16667000       0.83333400   Ti
0.66666800       0.33333600       0.00000000   Ti
0.66666900       0.33333500       0.16666500   Ti
0.66667100       0.33333300       0.33333300   Ti
0.66666800       0.33333600       0.49999800   Ti
0.66666800       0.33333600       0.83333000   Ti
0.66666600       0.50000000       0.00000000   Ti
0.66666800       0.49999800       0.33333600   Ti
0.66666400       0.50000200       0.50000200   Ti
0.66666800       0.49999800       0.66666800   Ti
0.66666400       0.50000200       0.83333400   Ti
0.66666800       0.66666800       0.00000000   Ti
0.66666800       0.66666800       0.16666600   Ti
0.66666800       0.66666800       0.33333600   Ti
0.66666800       0.66666800       0.49999800   Ti
0.66666800       0.66666800       0.66666800   Ti
0.66666800       0.66666800       0.83333000   Ti
0.66666500       0.83333300       0.00000000   Ti
0.66666400       0.83333400       0.16667000   Ti
0.66666800       0.83333000       0.33333600   Ti
0.66666400       0.83333400       0.50000200   Ti
0.66666400       0.83333400       0.83333400   Ti
0.83333400       0.00000000       0.00000000   Ti
0.83333500       0.00000000       0.16666800   Ti
0.83333300       0.00000000       0.33333300   Ti
0.83333300       0.00000000       0.66666500   Ti
0.83333400       0.00000000       0.83333400   Ti
0.83333700       0.16666700       0.16666700   Ti
0.83333500       0.16666900       0.33333100   Ti
0.83333700       0.16666700       0.49999900   Ti
0.83333400       0.16667000       0.66666400   Ti
0.83333400       0.16667000       0.83333400   Ti
0.83333300       0.33333300       0.00000000   Ti
0.83333500       0.33333100       0.16666900   Ti
0.83333300       0.33333300       0.33333300   Ti
0.83333400       0.33333200       0.50000200   Ti
0.83333000       0.33333600       0.66666800   Ti
0.83333400       0.33333200       0.83333400   Ti
0.83333500       0.50000100       0.00000000   Ti
0.83333700       0.49999900       0.16666700   Ti
0.83333400       0.50000200       0.33333200   Ti
0.83333400       0.50000200       0.66666400   Ti
0.83333400       0.50000200       0.83333400   Ti
0.83333400       0.66666400       0.16667000   Ti
0.83333000       0.66666800       0.33333600   Ti
0.83333400       0.66666400       0.50000200   Ti
0.83333000       0.66666800       0.66666800   Ti
0.83333400       0.66666400       0.83333400   Ti
0.83333400       0.83333400       0.16667000   Ti
0.83333400       0.83333400       0.33333200   Ti
0.83333400       0.83333400       0.50000200   Ti
0.83333400       0.83333400       0.66666400   Ti
0.83333400       0.83333400       0.83333400   Ti
