Cr2 Mg1 O4
    1.000000
       49.9660778       0.00000000       0.00000000  
       0.00000000       49.9660778       0.00000000  
       0.00000000       0.00000000       49.9660778  
   864 3456 6912
Direct
   0.0208333333     0.0208333333      0.187500000  Mg
   0.0208333333     0.0208333333      0.520833333  Mg
   0.0208333333     0.0208333333      0.687500000  Mg
   0.0208333333      0.187500000     0.0208333333  Mg
   0.0208333333      0.187500000      0.354166667  Mg
   0.0208333333      0.187500000      0.520833333  Mg
   0.0208333333      0.354166667     0.0208333333  Mg
   0.0208333333      0.354166667      0.354166667  Mg
   0.0208333333      0.354166667      0.854166667  Mg
   0.0208333333      0.520833333      0.187500000  Mg
   0.0208333333      0.520833333      0.520833333  Mg
   0.0208333333      0.687500000     0.0208333333  Mg
   0.0208333333      0.687500000      0.520833333  Mg
   0.0208333333      0.854166667      0.854166667  Mg
    0.187500000     0.0208333333     0.0208333333  Mg
    0.187500000     0.0208333333      0.687500000  Mg
    0.187500000     0.0208333333      0.854166667  Mg
    0.187500000      0.187500000     0.0208333333  Mg
    0.187500000      0.187500000      0.187500000  Mg
    0.187500000      0.187500000      0.354166667  Mg
    0.187500000      0.354166667     0.0208333333  Mg
    0.187500000      0.354166667      0.187500000  Mg
    0.187500000      0.354166667      0.354166667  Mg
    0.187500000      0.354166667      0.687500000  Mg
    0.187500000      0.354166667      0.854166667  Mg
    0.187500000      0.520833333     0.0208333333  Mg
    0.187500000      0.520833333      0.187500000  Mg
    0.187500000      0.520833333      0.520833333  Mg
    0.187500000      0.520833333      0.687500000  Mg
    0.187500000      0.520833333      0.854166667  Mg
    0.187500000      0.687500000      0.520833333  Mg
    0.187500000      0.687500000      0.687500000  Mg
    0.187500000      0.854166667      0.687500000  Mg
    0.187500000      0.854166667      0.854166667  Mg
    0.354166667     0.0208333333     0.0208333333  Mg
    0.354166667     0.0208333333      0.354166667  Mg
    0.354166667     0.0208333333      0.854166667  Mg
    0.354166667      0.187500000      0.520833333  Mg
    0.354166667      0.354166667     0.0208333333  Mg
    0.354166667      0.354166667      0.187500000  Mg
    0.354166667      0.354166667      0.354166667  Mg
    0.354166667      0.354166667      0.520833333  Mg
    0.354166667      0.520833333     0.0208333333  Mg
    0.354166667      0.520833333      0.187500000  Mg
    0.354166667      0.520833333      0.354166667  Mg
    0.354166667      0.520833333      0.520833333  Mg
    0.354166667      0.687500000     0.0208333333  Mg
    0.354166667      0.687500000      0.354166667  Mg
    0.354166667      0.687500000      0.687500000  Mg
    0.354166667      0.854166667     0.0208333333  Mg
    0.354166667      0.854166667      0.354166667  Mg
    0.354166667      0.854166667      0.520833333  Mg
    0.354166667      0.854166667      0.854166667  Mg
    0.520833333     0.0208333333     0.0208333333  Mg
    0.520833333     0.0208333333      0.187500000  Mg
    0.520833333     0.0208333333      0.520833333  Mg
    0.520833333      0.187500000      0.187500000  Mg
    0.520833333      0.187500000      0.354166667  Mg
    0.520833333      0.187500000      0.520833333  Mg
    0.520833333      0.354166667      0.520833333  Mg
    0.520833333      0.520833333      0.187500000  Mg
    0.520833333      0.520833333      0.354166667  Mg
    0.520833333      0.520833333      0.520833333  Mg
    0.520833333      0.520833333      0.687500000  Mg
    0.520833333      0.520833333      0.854166667  Mg
    0.520833333      0.687500000     0.0208333333  Mg
    0.520833333      0.687500000      0.187500000  Mg
    0.520833333      0.687500000      0.354166667  Mg
    0.520833333      0.687500000      0.520833333  Mg
    0.520833333      0.687500000      0.687500000  Mg
    0.520833333      0.854166667     0.0208333333  Mg
    0.520833333      0.854166667      0.187500000  Mg
    0.520833333      0.854166667      0.520833333  Mg
    0.687500000     0.0208333333     0.0208333333  Mg
    0.687500000     0.0208333333      0.187500000  Mg
    0.687500000     0.0208333333      0.354166667  Mg
    0.687500000     0.0208333333      0.520833333  Mg
    0.687500000     0.0208333333      0.687500000  Mg
    0.687500000      0.187500000     0.0208333333  Mg
    0.687500000      0.187500000      0.354166667  Mg
    0.687500000      0.187500000      0.854166667  Mg
    0.687500000      0.354166667      0.354166667  Mg
    0.687500000      0.354166667      0.520833333  Mg
    0.687500000      0.354166667      0.854166667  Mg
    0.687500000      0.520833333      0.187500000  Mg
    0.687500000      0.520833333      0.354166667  Mg
    0.687500000      0.520833333      0.687500000  Mg
    0.687500000      0.520833333      0.854166667  Mg
    0.687500000      0.687500000     0.0208333333  Mg
    0.687500000      0.687500000      0.354166667  Mg
    0.687500000      0.687500000      0.520833333  Mg
    0.687500000      0.687500000      0.687500000  Mg
    0.687500000      0.854166667      0.354166667  Mg
    0.687500000      0.854166667      0.520833333  Mg
    0.687500000      0.854166667      0.687500000  Mg
    0.854166667     0.0208333333     0.0208333333  Mg
    0.854166667     0.0208333333      0.520833333  Mg
    0.854166667      0.187500000     0.0208333333  Mg
    0.854166667      0.187500000      0.520833333  Mg
    0.854166667      0.187500000      0.854166667  Mg
    0.854166667      0.354166667      0.187500000  Mg
    0.854166667      0.354166667      0.354166667  Mg
    0.854166667      0.354166667      0.520833333  Mg
    0.854166667      0.354166667      0.687500000  Mg
    0.854166667      0.520833333      0.187500000  Mg
    0.854166667      0.520833333      0.520833333  Mg
    0.854166667      0.520833333      0.687500000  Mg
    0.854166667      0.687500000      0.187500000  Mg
    0.854166667      0.854166667      0.354166667  Mg
    0.854166667      0.854166667      0.520833333  Mg
    0.854166667      0.854166667      0.687500000  Mg
    0.854166667      0.854166667      0.854166667  Mg
    0.145833333      0.145833333      0.645833333  Mg
    0.145833333      0.312500000      0.312500000  Mg
    0.145833333      0.312500000      0.479166667  Mg
    0.145833333      0.479166667      0.145833333  Mg
    0.145833333      0.479166667      0.312500000  Mg
    0.145833333      0.479166667      0.479166667  Mg
    0.145833333      0.479166667      0.645833333  Mg
    0.145833333      0.645833333      0.145833333  Mg
    0.145833333      0.645833333      0.645833333  Mg
    0.145833333      0.645833333      0.812500000  Mg
    0.145833333      0.812500000      0.145833333  Mg
    0.145833333      0.812500000      0.812500000  Mg
    0.145833333      0.812500000      0.979166667  Mg
    0.145833333      0.979166667      0.145833333  Mg
    0.145833333      0.979166667      0.479166667  Mg
    0.145833333      0.979166667      0.812500000  Mg
    0.312500000      0.145833333      0.145833333  Mg
    0.312500000      0.145833333      0.312500000  Mg
    0.312500000      0.145833333      0.645833333  Mg
    0.312500000      0.145833333      0.812500000  Mg
    0.312500000      0.145833333      0.979166667  Mg
    0.312500000      0.312500000      0.645833333  Mg
    0.312500000      0.312500000      0.812500000  Mg
    0.312500000      0.312500000      0.979166667  Mg
    0.312500000      0.479166667      0.145833333  Mg
    0.312500000      0.479166667      0.645833333  Mg
    0.312500000      0.645833333      0.145833333  Mg
    0.312500000      0.645833333      0.312500000  Mg
    0.312500000      0.645833333      0.479166667  Mg
    0.312500000      0.645833333      0.645833333  Mg
    0.312500000      0.645833333      0.812500000  Mg
    0.312500000      0.812500000      0.645833333  Mg
    0.312500000      0.979166667      0.145833333  Mg
    0.312500000      0.979166667      0.645833333  Mg
    0.312500000      0.979166667      0.979166667  Mg
    0.479166667      0.145833333      0.479166667  Mg
    0.479166667      0.145833333      0.645833333  Mg
    0.479166667      0.145833333      0.812500000  Mg
    0.479166667      0.312500000      0.145833333  Mg
    0.479166667      0.312500000      0.312500000  Mg
    0.479166667      0.312500000      0.979166667  Mg
    0.479166667      0.479166667      0.145833333  Mg
    0.479166667      0.812500000      0.145833333  Mg
    0.479166667      0.812500000      0.312500000  Mg
    0.479166667      0.812500000      0.479166667  Mg
    0.479166667      0.812500000      0.645833333  Mg
    0.479166667      0.812500000      0.812500000  Mg
    0.479166667      0.812500000      0.979166667  Mg
    0.479166667      0.979166667      0.812500000  Mg
    0.645833333      0.145833333      0.145833333  Mg
    0.645833333      0.145833333      0.479166667  Mg
    0.645833333      0.312500000      0.479166667  Mg
    0.645833333      0.312500000      0.645833333  Mg
    0.645833333      0.479166667      0.312500000  Mg
    0.645833333      0.479166667      0.479166667  Mg
    0.645833333      0.479166667      0.812500000  Mg
    0.645833333      0.479166667      0.979166667  Mg
    0.645833333      0.645833333      0.145833333  Mg
    0.645833333      0.645833333      0.645833333  Mg
    0.645833333      0.645833333      0.812500000  Mg
    0.645833333      0.812500000      0.145833333  Mg
    0.645833333      0.812500000      0.979166667  Mg
    0.645833333      0.979166667      0.145833333  Mg
    0.645833333      0.979166667      0.479166667  Mg
    0.645833333      0.979166667      0.979166667  Mg
    0.812500000      0.145833333      0.145833333  Mg
    0.812500000      0.145833333      0.479166667  Mg
    0.812500000      0.145833333      0.645833333  Mg
    0.812500000      0.145833333      0.979166667  Mg
    0.812500000      0.312500000      0.479166667  Mg
    0.812500000      0.312500000      0.645833333  Mg
    0.812500000      0.312500000      0.812500000  Mg
    0.812500000      0.312500000      0.979166667  Mg
    0.812500000      0.479166667      0.312500000  Mg
    0.812500000      0.479166667      0.645833333  Mg
    0.812500000      0.479166667      0.812500000  Mg
    0.812500000      0.479166667      0.979166667  Mg
    0.812500000      0.645833333      0.145833333  Mg
    0.812500000      0.645833333      0.312500000  Mg
    0.812500000      0.645833333      0.479166667  Mg
    0.812500000      0.645833333      0.645833333  Mg
    0.812500000      0.645833333      0.812500000  Mg
    0.812500000      0.645833333      0.979166667  Mg
    0.812500000      0.812500000      0.145833333  Mg
    0.812500000      0.812500000      0.312500000  Mg
    0.812500000      0.812500000      0.645833333  Mg
    0.812500000      0.979166667      0.145833333  Mg
    0.812500000      0.979166667      0.312500000  Mg
    0.812500000      0.979166667      0.645833333  Mg
    0.979166667      0.145833333      0.145833333  Mg
    0.979166667      0.145833333      0.479166667  Mg
    0.979166667      0.145833333      0.645833333  Mg
    0.979166667      0.312500000      0.479166667  Mg
    0.979166667      0.479166667      0.645833333  Mg
    0.979166667      0.479166667      0.812500000  Mg
    0.979166667      0.645833333      0.145833333  Mg
    0.979166667      0.645833333      0.312500000  Mg
    0.979166667      0.645833333      0.645833333  Mg
    0.979166667      0.812500000      0.312500000  Mg
    0.979166667      0.812500000      0.479166667  Mg
    0.979166667      0.812500000      0.812500000  Mg
    0.979166667      0.812500000      0.979166667  Mg
    0.979166667      0.979166667      0.312500000  Mg
    0.979166667      0.979166667      0.812500000  Mg
    0.104166667     0.0208333333      0.270833333  Mg
    0.104166667     0.0208333333      0.437500000  Mg
    0.104166667      0.187500000      0.270833333  Mg
    0.104166667      0.187500000      0.604166667  Mg
    0.104166667      0.187500000      0.770833333  Mg
    0.104166667      0.354166667      0.104166667  Mg
    0.104166667      0.354166667      0.437500000  Mg
    0.104166667      0.354166667      0.604166667  Mg
    0.104166667      0.354166667      0.770833333  Mg
    0.104166667      0.520833333      0.270833333  Mg
    0.104166667      0.520833333      0.604166667  Mg
    0.104166667      0.520833333      0.770833333  Mg
    0.104166667      0.687500000      0.104166667  Mg
    0.104166667      0.687500000      0.270833333  Mg
    0.104166667      0.687500000      0.770833333  Mg
    0.104166667      0.687500000      0.937500000  Mg
    0.104166667      0.854166667      0.104166667  Mg
    0.104166667      0.854166667      0.270833333  Mg
    0.104166667      0.854166667      0.437500000  Mg
    0.270833333     0.0208333333      0.270833333  Mg
    0.270833333     0.0208333333      0.437500000  Mg
    0.270833333     0.0208333333      0.604166667  Mg
    0.270833333     0.0208333333      0.770833333  Mg
    0.270833333      0.187500000      0.770833333  Mg
    0.270833333      0.354166667      0.104166667  Mg
    0.270833333      0.354166667      0.437500000  Mg
    0.270833333      0.520833333      0.270833333  Mg
    0.270833333      0.520833333      0.437500000  Mg
    0.270833333      0.520833333      0.604166667  Mg
    0.270833333      0.520833333      0.770833333  Mg
    0.270833333      0.687500000      0.270833333  Mg
    0.270833333      0.687500000      0.770833333  Mg
    0.270833333      0.854166667      0.104166667  Mg
    0.270833333      0.854166667      0.437500000  Mg
    0.437500000     0.0208333333      0.604166667  Mg
    0.437500000     0.0208333333      0.770833333  Mg
    0.437500000     0.0208333333      0.937500000  Mg
    0.437500000      0.187500000      0.104166667  Mg
    0.437500000      0.187500000      0.270833333  Mg
    0.437500000      0.187500000      0.770833333  Mg
    0.437500000      0.187500000      0.937500000  Mg
    0.437500000      0.354166667      0.104166667  Mg
    0.437500000      0.354166667      0.770833333  Mg
    0.437500000      0.520833333      0.604166667  Mg
    0.437500000      0.520833333      0.770833333  Mg
    0.437500000      0.687500000      0.270833333  Mg
    0.437500000      0.687500000      0.437500000  Mg
    0.437500000      0.687500000      0.604166667  Mg
    0.437500000      0.687500000      0.770833333  Mg
    0.437500000      0.687500000      0.937500000  Mg
    0.437500000      0.854166667      0.604166667  Mg
    0.604166667     0.0208333333      0.770833333  Mg
    0.604166667      0.187500000      0.604166667  Mg
    0.604166667      0.354166667      0.104166667  Mg
    0.604166667      0.354166667      0.270833333  Mg
    0.604166667      0.354166667      0.770833333  Mg
    0.604166667      0.354166667      0.937500000  Mg
    0.604166667      0.520833333      0.104166667  Mg
    0.604166667      0.520833333      0.270833333  Mg
    0.604166667      0.520833333      0.937500000  Mg
    0.604166667      0.687500000      0.270833333  Mg
    0.604166667      0.687500000      0.937500000  Mg
    0.604166667      0.854166667      0.104166667  Mg
    0.604166667      0.854166667      0.270833333  Mg
    0.604166667      0.854166667      0.437500000  Mg
    0.604166667      0.854166667      0.604166667  Mg
    0.604166667      0.854166667      0.770833333  Mg
    0.604166667      0.854166667      0.937500000  Mg
    0.770833333     0.0208333333      0.437500000  Mg
    0.770833333     0.0208333333      0.604166667  Mg
    0.770833333     0.0208333333      0.770833333  Mg
    0.770833333      0.187500000      0.104166667  Mg
    0.770833333      0.187500000      0.270833333  Mg
    0.770833333      0.354166667      0.104166667  Mg
    0.770833333      0.354166667      0.770833333  Mg
    0.770833333      0.354166667      0.937500000  Mg
    0.770833333      0.520833333      0.104166667  Mg
    0.770833333      0.520833333      0.437500000  Mg
    0.770833333      0.687500000      0.104166667  Mg
    0.770833333      0.687500000      0.270833333  Mg
    0.770833333      0.854166667      0.770833333  Mg
    0.770833333      0.854166667      0.937500000  Mg
    0.937500000     0.0208333333      0.104166667  Mg
    0.937500000     0.0208333333      0.437500000  Mg
    0.937500000     0.0208333333      0.937500000  Mg
    0.937500000      0.187500000      0.270833333  Mg
    0.937500000      0.187500000      0.437500000  Mg
    0.937500000      0.187500000      0.770833333  Mg
    0.937500000      0.187500000      0.937500000  Mg
    0.937500000      0.354166667      0.270833333  Mg
    0.937500000      0.354166667      0.604166667  Mg
    0.937500000      0.354166667      0.770833333  Mg
    0.937500000      0.354166667      0.937500000  Mg
    0.937500000      0.520833333      0.104166667  Mg
    0.937500000      0.520833333      0.270833333  Mg
    0.937500000      0.520833333      0.437500000  Mg
    0.937500000      0.520833333      0.604166667  Mg
    0.937500000      0.520833333      0.770833333  Mg
    0.937500000      0.520833333      0.937500000  Mg
    0.937500000      0.687500000      0.270833333  Mg
    0.937500000      0.687500000      0.770833333  Mg
    0.937500000      0.687500000      0.937500000  Mg
    0.937500000      0.854166667      0.104166667  Mg
    0.937500000      0.854166667      0.604166667  Mg
    0.937500000      0.854166667      0.937500000  Mg
   0.0625000000      0.145833333      0.229166667  Mg
   0.0625000000      0.145833333      0.395833333  Mg
   0.0625000000      0.145833333      0.895833333  Mg
   0.0625000000      0.312500000      0.229166667  Mg
   0.0625000000      0.312500000      0.395833333  Mg
   0.0625000000      0.312500000      0.729166667  Mg
   0.0625000000      0.312500000      0.895833333  Mg
   0.0625000000      0.479166667     0.0625000000  Mg
   0.0625000000      0.479166667      0.395833333  Mg
   0.0625000000      0.479166667      0.895833333  Mg
   0.0625000000      0.645833333      0.229166667  Mg
   0.0625000000      0.645833333      0.395833333  Mg
   0.0625000000      0.645833333      0.562500000  Mg
   0.0625000000      0.645833333      0.729166667  Mg
   0.0625000000      0.645833333      0.895833333  Mg
   0.0625000000      0.812500000      0.562500000  Mg
   0.0625000000      0.812500000      0.729166667  Mg
   0.0625000000      0.812500000      0.895833333  Mg
   0.0625000000      0.979166667     0.0625000000  Mg
   0.0625000000      0.979166667      0.895833333  Mg
    0.229166667      0.145833333      0.395833333  Mg
    0.229166667      0.145833333      0.562500000  Mg
    0.229166667      0.145833333      0.895833333  Mg
    0.229166667      0.312500000      0.229166667  Mg
    0.229166667      0.479166667     0.0625000000  Mg
    0.229166667      0.479166667      0.395833333  Mg
    0.229166667      0.479166667      0.895833333  Mg
    0.229166667      0.645833333     0.0625000000  Mg
    0.229166667      0.645833333      0.395833333  Mg
    0.229166667      0.645833333      0.562500000  Mg
    0.229166667      0.645833333      0.895833333  Mg
    0.229166667      0.812500000     0.0625000000  Mg
    0.229166667      0.812500000      0.229166667  Mg
    0.229166667      0.812500000      0.395833333  Mg
    0.229166667      0.812500000      0.562500000  Mg
    0.229166667      0.812500000      0.729166667  Mg
    0.229166667      0.979166667     0.0625000000  Mg
    0.229166667      0.979166667      0.395833333  Mg
    0.395833333      0.145833333      0.395833333  Mg
    0.395833333      0.145833333      0.562500000  Mg
    0.395833333      0.145833333      0.895833333  Mg
    0.395833333      0.312500000      0.395833333  Mg
    0.395833333      0.312500000      0.895833333  Mg
    0.395833333      0.479166667     0.0625000000  Mg
    0.395833333      0.479166667      0.229166667  Mg
    0.395833333      0.479166667      0.395833333  Mg
    0.395833333      0.479166667      0.895833333  Mg
    0.395833333      0.645833333     0.0625000000  Mg
    0.395833333      0.645833333      0.229166667  Mg
    0.395833333      0.645833333      0.562500000  Mg
    0.395833333      0.812500000      0.229166667  Mg
    0.395833333      0.812500000      0.395833333  Mg
    0.395833333      0.812500000      0.729166667  Mg
    0.395833333      0.979166667     0.0625000000  Mg
    0.395833333      0.979166667      0.229166667  Mg
    0.395833333      0.979166667      0.395833333  Mg
    0.395833333      0.979166667      0.562500000  Mg
    0.562500000      0.145833333     0.0625000000  Mg
    0.562500000      0.145833333      0.729166667  Mg
    0.562500000      0.145833333      0.895833333  Mg
    0.562500000      0.312500000     0.0625000000  Mg
    0.562500000      0.312500000      0.395833333  Mg
    0.562500000      0.312500000      0.562500000  Mg
    0.562500000      0.312500000      0.895833333  Mg
    0.562500000      0.479166667      0.562500000  Mg
    0.562500000      0.645833333      0.229166667  Mg
    0.562500000      0.645833333      0.395833333  Mg
    0.562500000      0.645833333      0.729166667  Mg
    0.562500000      0.645833333      0.895833333  Mg
    0.562500000      0.812500000      0.395833333  Mg
    0.562500000      0.979166667     0.0625000000  Mg
    0.562500000      0.979166667      0.229166667  Mg
    0.562500000      0.979166667      0.395833333  Mg
    0.562500000      0.979166667      0.562500000  Mg
    0.562500000      0.979166667      0.729166667  Mg
    0.562500000      0.979166667      0.895833333  Mg
    0.729166667      0.145833333      0.229166667  Mg
    0.729166667      0.145833333      0.395833333  Mg
    0.729166667      0.145833333      0.562500000  Mg
    0.729166667      0.145833333      0.729166667  Mg
    0.729166667      0.312500000     0.0625000000  Mg
    0.729166667      0.312500000      0.229166667  Mg
    0.729166667      0.479166667      0.229166667  Mg
    0.729166667      0.479166667      0.562500000  Mg
    0.729166667      0.479166667      0.729166667  Mg
    0.729166667      0.645833333      0.229166667  Mg
    0.729166667      0.812500000     0.0625000000  Mg
    0.729166667      0.812500000      0.229166667  Mg
    0.729166667      0.812500000      0.395833333  Mg
    0.729166667      0.812500000      0.895833333  Mg
    0.729166667      0.979166667      0.729166667  Mg
    0.729166667      0.979166667      0.895833333  Mg
    0.895833333      0.312500000     0.0625000000  Mg
    0.895833333      0.312500000      0.395833333  Mg
    0.895833333      0.312500000      0.895833333  Mg
    0.895833333      0.479166667     0.0625000000  Mg
    0.895833333      0.479166667      0.229166667  Mg
    0.895833333      0.479166667      0.395833333  Mg
    0.895833333      0.479166667      0.562500000  Mg
    0.895833333      0.479166667      0.895833333  Mg
    0.895833333      0.645833333     0.0625000000  Mg
    0.895833333      0.645833333      0.395833333  Mg
    0.895833333      0.645833333      0.562500000  Mg
    0.895833333      0.812500000     0.0625000000  Mg
    0.895833333      0.812500000      0.229166667  Mg
    0.895833333      0.979166667      0.562500000  Mg
    0.895833333      0.979166667      0.729166667  Mg
    0.895833333      0.979166667      0.895833333  Mg
   0.0208333333      0.104166667      0.770833333  Mg
   0.0208333333      0.270833333      0.104166667  Mg
   0.0208333333      0.270833333      0.270833333  Mg
   0.0208333333      0.270833333      0.604166667  Mg
   0.0208333333      0.437500000      0.437500000  Mg
   0.0208333333      0.437500000      0.770833333  Mg
   0.0208333333      0.437500000      0.937500000  Mg
   0.0208333333      0.770833333      0.104166667  Mg
   0.0208333333      0.770833333      0.770833333  Mg
   0.0208333333      0.937500000      0.437500000  Mg
   0.0208333333      0.937500000      0.604166667  Mg
   0.0208333333      0.937500000      0.770833333  Mg
   0.0208333333      0.937500000      0.937500000  Mg
    0.187500000      0.104166667      0.104166667  Mg
    0.187500000      0.104166667      0.270833333  Mg
    0.187500000      0.104166667      0.437500000  Mg
    0.187500000      0.104166667      0.770833333  Mg
    0.187500000      0.104166667      0.937500000  Mg
    0.187500000      0.270833333      0.270833333  Mg
    0.187500000      0.270833333      0.604166667  Mg
    0.187500000      0.270833333      0.770833333  Mg
    0.187500000      0.270833333      0.937500000  Mg
    0.187500000      0.437500000      0.270833333  Mg
    0.187500000      0.437500000      0.770833333  Mg
    0.187500000      0.604166667      0.270833333  Mg
    0.187500000      0.604166667      0.437500000  Mg
    0.187500000      0.604166667      0.770833333  Mg
    0.187500000      0.604166667      0.937500000  Mg
    0.187500000      0.770833333      0.270833333  Mg
    0.187500000      0.770833333      0.437500000  Mg
    0.187500000      0.770833333      0.604166667  Mg
    0.187500000      0.770833333      0.937500000  Mg
    0.187500000      0.937500000      0.104166667  Mg
    0.187500000      0.937500000      0.270833333  Mg
    0.187500000      0.937500000      0.604166667  Mg
    0.187500000      0.937500000      0.937500000  Mg
    0.354166667      0.104166667      0.270833333  Mg
    0.354166667      0.104166667      0.437500000  Mg
    0.354166667      0.104166667      0.604166667  Mg
    0.354166667      0.270833333      0.270833333  Mg
    0.354166667      0.270833333      0.770833333  Mg
    0.354166667      0.437500000      0.270833333  Mg
    0.354166667      0.437500000      0.770833333  Mg
    0.354166667      0.437500000      0.937500000  Mg
    0.354166667      0.604166667      0.104166667  Mg
    0.354166667      0.604166667      0.437500000  Mg
    0.354166667      0.604166667      0.937500000  Mg
    0.354166667      0.770833333      0.104166667  Mg
    0.354166667      0.770833333      0.270833333  Mg
    0.354166667      0.770833333      0.604166667  Mg
    0.354166667      0.770833333      0.770833333  Mg
    0.354166667      0.770833333      0.937500000  Mg
    0.354166667      0.937500000      0.104166667  Mg
    0.354166667      0.937500000      0.770833333  Mg
    0.520833333      0.104166667      0.270833333  Mg
    0.520833333      0.104166667      0.437500000  Mg
    0.520833333      0.104166667      0.770833333  Mg
    0.520833333      0.104166667      0.937500000  Mg
    0.520833333      0.270833333      0.437500000  Mg
    0.520833333      0.270833333      0.604166667  Mg
    0.520833333      0.270833333      0.770833333  Mg
    0.520833333      0.437500000      0.104166667  Mg
    0.520833333      0.437500000      0.270833333  Mg
    0.520833333      0.437500000      0.437500000  Mg
    0.520833333      0.437500000      0.937500000  Mg
    0.520833333      0.604166667      0.104166667  Mg
    0.520833333      0.604166667      0.604166667  Mg
    0.520833333      0.770833333      0.270833333  Mg
    0.520833333      0.770833333      0.770833333  Mg
    0.520833333      0.937500000      0.104166667  Mg
    0.520833333      0.937500000      0.270833333  Mg
    0.520833333      0.937500000      0.437500000  Mg
    0.520833333      0.937500000      0.937500000  Mg
    0.687500000      0.104166667      0.104166667  Mg
    0.687500000      0.104166667      0.270833333  Mg
    0.687500000      0.104166667      0.604166667  Mg
    0.687500000      0.104166667      0.770833333  Mg
    0.687500000      0.104166667      0.937500000  Mg
    0.687500000      0.270833333      0.104166667  Mg
    0.687500000      0.270833333      0.437500000  Mg
    0.687500000      0.270833333      0.604166667  Mg
    0.687500000      0.270833333      0.770833333  Mg
    0.687500000      0.270833333      0.937500000  Mg
    0.687500000      0.437500000      0.604166667  Mg
    0.687500000      0.604166667      0.104166667  Mg
    0.687500000      0.604166667      0.270833333  Mg
    0.687500000      0.604166667      0.437500000  Mg
    0.687500000      0.604166667      0.604166667  Mg
    0.687500000      0.604166667      0.770833333  Mg
    0.687500000      0.604166667      0.937500000  Mg
    0.687500000      0.770833333      0.270833333  Mg
    0.687500000      0.770833333      0.770833333  Mg
    0.687500000      0.937500000      0.104166667  Mg
    0.687500000      0.937500000      0.270833333  Mg
    0.687500000      0.937500000      0.437500000  Mg
    0.687500000      0.937500000      0.604166667  Mg
    0.687500000      0.937500000      0.937500000  Mg
    0.854166667      0.104166667      0.270833333  Mg
    0.854166667      0.104166667      0.604166667  Mg
    0.854166667      0.104166667      0.770833333  Mg
    0.854166667      0.437500000      0.104166667  Mg
    0.854166667      0.437500000      0.770833333  Mg
    0.854166667      0.437500000      0.937500000  Mg
    0.854166667      0.604166667      0.937500000  Mg
    0.854166667      0.770833333      0.104166667  Mg
    0.854166667      0.770833333      0.270833333  Mg
    0.854166667      0.770833333      0.437500000  Mg
    0.854166667      0.770833333      0.770833333  Mg
    0.854166667      0.770833333      0.937500000  Mg
    0.854166667      0.937500000      0.270833333  Mg
    0.854166667      0.937500000      0.437500000  Mg
    0.854166667      0.937500000      0.770833333  Mg
    0.145833333     0.0625000000      0.395833333  Mg
    0.145833333     0.0625000000      0.562500000  Mg
    0.145833333     0.0625000000      0.729166667  Mg
    0.145833333      0.229166667     0.0625000000  Mg
    0.145833333      0.229166667      0.395833333  Mg
    0.145833333      0.229166667      0.729166667  Mg
    0.145833333      0.229166667      0.895833333  Mg
    0.145833333      0.395833333      0.562500000  Mg
    0.145833333      0.395833333      0.895833333  Mg
    0.145833333      0.729166667      0.395833333  Mg